27
nitro-michael addition transition state
C	-1.170151	0.284372	0.531649
C	-0.101945	1.120176	0.327648
C	1.254937	0.888450	0.840664
O	1.688647	1.452803	1.856576
C	-1.197855	-0.922660	-1.283534
H	-1.144041	-0.037361	-1.928181
H	-0.293602	-1.509845	-1.087931
N	-2.379617	-1.678510	-1.425936
O	-2.429838	-2.845632	-1.073379
O	-3.397412	-1.157002	-1.861738
C	-2.576763	0.739795	0.368944
Br	-0.932006	-1.122751	1.826219
Br	-0.268050	2.732951	-0.613576
C	2.142237	-0.032288	0.079642
C	3.203683	-0.661296	0.744966
C	4.059999	-1.514519	0.052675
C	3.868011	-1.739920	-1.310739
C	2.817029	-1.112842	-1.978089
C	1.952425	-0.263765	-1.286296
H	-2.781277	1.581383	1.079179
H	-2.759217	1.097153	-0.676554
H	-3.307539	-0.082149	0.569711
H	3.349388	-0.469522	1.819539
H	4.884921	-2.011489	0.581785
H	4.541887	-2.415224	-1.856559
H	2.658520	-1.294651	-3.050606
H	1.109435	0.219921	-1.808195
